NAME: ulysses16.tsp
TYPE: TSP
COMMENT: Odyssey of Ulysses (Groetschel/Padberg)
DIMENSION: 5
EDGE_WEIGHT_TYPE: GEO
DISPLAY_DATA_TYPE: COORD_DISPLAY
NODE_COORD_SECTION
 0 38.24 20.42
 1 39.57 26.15
 2 40.56 25.32
 3 36.26 23.12
 4 33.48 10.54
 EOF

